F=506;
S=23;
M=5;
A=[1,3,10,70,500];
B=[-0,0.66,5.35,59.35,489.35];
Si=[{0,6,1},
    {0,2},
    {0,15,3},
    {0,15,4},
    {0,6,5},
    {0,6},
    {0,15,4,7},
    {0,15,8},
    {0,2,9},
    {0,2,10},
    {0,6,1,11},
    {0,6,1,12},
    {0,2,13},
    {0,15,8,14},
    {0,15},
    {0,6,16},
    {0,6,1,17},
    {0,6,18},
    {0,6,16,19},
    {0,2,20},
    {0,6,1,11,21},
    {0,6,1,22},
    {1,6,0},
    {1,6,0,2},
    {1,3},
    {1,3,15,4},
    {1,6,5},
    {1,6},
    {1,3,15,4,7},
    {1,3,15,8},
    {1,11,9},
    {1,11,9,10},
    {1,11},
    {1,12},
    {1,12,13},
    {1,3,15,8,14},
    {1,3,15},
    {1,6,16},
    {1,17},
    {1,6,18},
    {1,6,16,19},
    {1,6,20},
    {1,11,21},
    {1,22},
    {2,0},
    {2,0,6,1},
    {2,0,15,3},
    {2,0,15,4},
    {2,0,6,5},
    {2,0,6},
    {2,0,15,4,7},
    {2,0,15,8},
    {2,9},
    {2,10},
    {2,9,11},
    {2,13,12},
    {2,13},
    {2,0,15,8,14},
    {2,0,15},
    {2,9,16},
    {2,20,17},
    {2,0,6,18},
    {2,9,16,19},
    {2,20},
    {2,9,11,21},
    {2,9,16,22},
    {3,15,0},
    {3,1},
    {3,15,0,2},
    {3,15,4},
    {3,1,6,5},
    {3,1,6},
    {3,15,4,7},
    {3,15,8},
    {3,15,9},
    {3,15,9,10},
    {3,1,11},
    {3,1,12},
    {3,1,12,13},
    {3,15,8,14},
    {3,15},
    {3,1,6,16},
    {3,1,17},
    {3,1,6,18},
    {3,15,8,14,19},
    {3,1,6,20},
    {3,1,11,21},
    {3,1,22},
    {4,15,0},
    {4,15,3,1},
    {4,15,0,2},
    {4,15,3},
    {4,15,0,6,5},
    {4,15,0,6},
    {4,7},
    {4,7,8},
    {4,15,9},
    {4,15,9,10},
    {4,15,9,11},
    {4,15,3,1,12},
    {4,15,0,2,13},
    {4,7,8,14},
    {4,15},
    {4,15,9,16},
    {4,15,3,1,17},
    {4,15,0,6,18},
    {4,7,8,14,19},
    {4,15,0,2,20},
    {4,15,9,11,21},
    {4,15,3,1,22},
    {5,6,0},
    {5,6,1},
    {5,6,0,2},
    {5,6,1,3},
    {5,6,0,15,4},
    {5,6},
    {5,6,0,15,4,7},
    {5,6,0,15,8},
    {5,6,16,9},
    {5,6,0,2,10},
    {5,6,1,11},
    {5,18,12},
    {5,18,12,13},
    {5,6,16,19,14},
    {5,6,0,15},
    {5,6,16},
    {5,6,1,17},
    {5,18},
    {5,6,16,19},
    {5,6,20},
    {5,6,1,11,21},
    {5,6,1,22},
    {6,0},
    {6,1},
    {6,0,2},
    {6,1,3},
    {6,0,15,4},
    {6,5},
    {6,0,15,4,7},
    {6,0,15,8},
    {6,16,9},
    {6,0,2,10},
    {6,1,11},
    {6,1,12},
    {6,0,2,13},
    {6,16,19,14},
    {6,0,15},
    {6,16},
    {6,1,17},
    {6,18},
    {6,16,19},
    {6,20},
    {6,1,11,21},
    {6,1,22},
    {7,4,15,0},
    {7,4,15,3,1},
    {7,4,15,0,2},
    {7,4,15,3},
    {7,4},
    {7,4,15,0,6,5},
    {7,4,15,0,6},
    {7,8},
    {7,4,15,9},
    {7,4,15,9,10},
    {7,4,15,9,11},
    {7,4,15,3,1,12},
    {7,4,15,0,2,13},
    {7,8,14},
    {7,4,15},
    {7,4,15,9,16},
    {7,4,15,3,1,17},
    {7,4,15,0,6,18},
    {7,8,14,19},
    {7,4,15,0,2,20},
    {7,8,14,19,21},
    {7,4,15,3,1,22},
    {8,15,0},
    {8,15,3,1},
    {8,15,0,2},
    {8,15,3},
    {8,7,4},
    {8,15,0,6,5},
    {8,15,0,6},
    {8,7},
    {8,15,9},
    {8,15,9,10},
    {8,15,9,11},
    {8,15,3,1,12},
    {8,15,0,2,13},
    {8,14},
    {8,15},
    {8,15,9,16},
    {8,15,3,1,17},
    {8,15,0,6,18},
    {8,14,19},
    {8,15,0,2,20},
    {8,14,19,21},
    {8,15,3,1,22},
    {9,2,0},
    {9,11,1},
    {9,2},
    {9,15,3},
    {9,15,4},
    {9,16,6,5},
    {9,16,6},
    {9,15,4,7},
    {9,15,8},
    {9,10},
    {9,11},
    {9,16,12},
    {9,2,13},
    {9,15,8,14},
    {9,15},
    {9,16},
    {9,11,1,17},
    {9,16,6,18},
    {9,16,19},
    {9,2,20},
    {9,11,21},
    {9,16,22},
    {10,2,0},
    {10,9,11,1},
    {10,2},
    {10,9,15,3},
    {10,9,15,4},
    {10,2,0,6,5},
    {10,2,0,6},
    {10,9,15,4,7},
    {10,9,15,8},
    {10,9},
    {10,9,11},
    {10,2,13,12},
    {10,2,13},
    {10,9,15,8,14},
    {10,9,15},
    {10,9,16},
    {10,2,20,17},
    {10,2,0,6,18},
    {10,9,16,19},
    {10,2,20},
    {10,9,11,21},
    {10,9,16,22},
    {11,1,6,0},
    {11,1},
    {11,9,2},
    {11,1,3},
    {11,9,15,4},
    {11,1,6,5},
    {11,1,6},
    {11,9,15,4,7},
    {11,9,15,8},
    {11,9},
    {11,9,10},
    {11,1,12},
    {11,9,2,13},
    {11,21,19,14},
    {11,9,15},
    {11,9,16},
    {11,1,17},
    {11,1,6,18},
    {11,21,19},
    {11,1,6,20},
    {11,21},
    {11,1,22},
    {12,1,6,0},
    {12,1},
    {12,13,2},
    {12,1,3},
    {12,1,3,15,4},
    {12,18,5},
    {12,1,6},
    {12,1,3,15,4,7},
    {12,1,3,15,8},
    {12,16,9},
    {12,13,2,10},
    {12,1,11},
    {12,13},
    {12,16,19,14},
    {12,1,3,15},
    {12,16},
    {12,1,17},
    {12,18},
    {12,16,19},
    {12,1,6,20},
    {12,1,11,21},
    {12,1,22},
    {13,2,0},
    {13,12,1},
    {13,2},
    {13,12,1,3},
    {13,2,0,15,4},
    {13,12,18,5},
    {13,2,0,6},
    {13,2,0,15,4,7},
    {13,2,0,15,8},
    {13,2,9},
    {13,2,10},
    {13,2,9,11},
    {13,12},
    {13,12,16,19,14},
    {13,2,0,15},
    {13,12,16},
    {13,12,1,17},
    {13,12,18},
    {13,12,16,19},
    {13,2,20},
    {13,2,9,11,21},
    {13,12,1,22},
    {14,8,15,0},
    {14,8,15,3,1},
    {14,8,15,0,2},
    {14,8,15,3},
    {14,8,7,4},
    {14,19,16,6,5},
    {14,19,16,6},
    {14,8,7},
    {14,8},
    {14,8,15,9},
    {14,8,15,9,10},
    {14,19,21,11},
    {14,19,16,12},
    {14,19,16,12,13},
    {14,8,15},
    {14,19,16},
    {14,8,15,3,1,17},
    {14,19,16,6,18},
    {14,19},
    {14,19,16,6,20},
    {14,19,21},
    {14,19,16,22},
    {15,0},
    {15,3,1},
    {15,0,2},
    {15,3},
    {15,4},
    {15,0,6,5},
    {15,0,6},
    {15,4,7},
    {15,8},
    {15,9},
    {15,9,10},
    {15,9,11},
    {15,3,1,12},
    {15,0,2,13},
    {15,8,14},
    {15,9,16},
    {15,3,1,17},
    {15,0,6,18},
    {15,8,14,19},
    {15,0,2,20},
    {15,9,11,21},
    {15,3,1,22},
    {16,6,0},
    {16,6,1},
    {16,9,2},
    {16,6,1,3},
    {16,9,15,4},
    {16,6,5},
    {16,6},
    {16,9,15,4,7},
    {16,9,15,8},
    {16,9},
    {16,9,10},
    {16,9,11},
    {16,12},
    {16,12,13},
    {16,19,14},
    {16,9,15},
    {16,6,1,17},
    {16,6,18},
    {16,19},
    {16,6,20},
    {16,19,21},
    {16,22},
    {17,1,6,0},
    {17,1},
    {17,20,2},
    {17,1,3},
    {17,1,3,15,4},
    {17,1,6,5},
    {17,1,6},
    {17,1,3,15,4,7},
    {17,1,3,15,8},
    {17,1,11,9},
    {17,20,2,10},
    {17,1,11},
    {17,1,12},
    {17,1,12,13},
    {17,1,3,15,8,14},
    {17,1,3,15},
    {17,1,6,16},
    {17,1,6,18},
    {17,1,6,16,19},
    {17,20},
    {17,1,11,21},
    {17,1,22},
    {18,6,0},
    {18,6,1},
    {18,6,0,2},
    {18,6,1,3},
    {18,6,0,15,4},
    {18,5},
    {18,6},
    {18,6,0,15,4,7},
    {18,6,0,15,8},
    {18,6,16,9},
    {18,6,0,2,10},
    {18,6,1,11},
    {18,12},
    {18,12,13},
    {18,6,16,19,14},
    {18,6,0,15},
    {18,6,16},
    {18,6,1,17},
    {18,6,16,19},
    {18,6,20},
    {18,6,1,11,21},
    {18,6,1,22},
    {19,16,6,0},
    {19,16,6,1},
    {19,16,9,2},
    {19,14,8,15,3},
    {19,14,8,7,4},
    {19,16,6,5},
    {19,16,6},
    {19,14,8,7},
    {19,14,8},
    {19,16,9},
    {19,16,9,10},
    {19,21,11},
    {19,16,12},
    {19,16,12,13},
    {19,14},
    {19,14,8,15},
    {19,16},
    {19,16,6,1,17},
    {19,16,6,18},
    {19,16,6,20},
    {19,21},
    {19,16,22},
    {20,2,0},
    {20,6,1},
    {20,2},
    {20,6,1,3},
    {20,2,0,15,4},
    {20,6,5},
    {20,6},
    {20,2,0,15,4,7},
    {20,2,0,15,8},
    {20,2,9},
    {20,2,10},
    {20,6,1,11},
    {20,6,1,12},
    {20,2,13},
    {20,6,16,19,14},
    {20,2,0,15},
    {20,6,16},
    {20,17},
    {20,6,18},
    {20,6,16,19},
    {20,6,1,11,21},
    {20,6,1,22},
    {21,11,1,6,0},
    {21,11,1},
    {21,11,9,2},
    {21,11,1,3},
    {21,11,9,15,4},
    {21,11,1,6,5},
    {21,11,1,6},
    {21,19,14,8,7},
    {21,19,14,8},
    {21,11,9},
    {21,11,9,10},
    {21,11},
    {21,11,1,12},
    {21,11,9,2,13},
    {21,19,14},
    {21,11,9,15},
    {21,19,16},
    {21,11,1,17},
    {21,11,1,6,18},
    {21,19},
    {21,11,1,6,20},
    {21,11,1,22},
    {22,1,6,0},
    {22,1},
    {22,16,9,2},
    {22,1,3},
    {22,1,3,15,4},
    {22,1,6,5},
    {22,1,6},
    {22,1,3,15,4,7},
    {22,1,3,15,8},
    {22,16,9},
    {22,16,9,10},
    {22,1,11},
    {22,1,12},
    {22,1,12,13},
    {22,16,19,14},
    {22,1,3,15},
    {22,16},
    {22,1,17},
    {22,1,6,18},
    {22,16,19},
    {22,1,6,20},
    {22,1,11,21}];
weight=[240,277,287,289,208,243,204,286,208,262,253,249,265,262,267,275,266,201,275,254,207,220,265,202,256,237,217,263,257,209,246,230,261,285,220,201,255,280,211,265,263,286,265,257,200,284,252,271,280,254,286,249,223,300,283,240,300,245,228,234,257,215,257,219,235,248,205,214,210,230,205,209,222,235,244,208,236,202,208,263,288,291,261,218,232,231,274,279,228,295,235,243,242,258,233,219,203,250,294,266,283,266,272,222,263,256,238,273,299,270,300,266,234,281,234,213,209,216,208,289,235,235,287,247,265,291,213,233,274,298,281,233,251,209,281,244,270,295,235,251,250,273,266,227,221,230,208,238,282,258,249,255,209,226,244,221,211,247,205,241,249,202,229,295,299,257,221,288,242,209,282,215,230,247,216,235,217,294,242,267,211,232,216,207,231,276,207,209,267,242,242,251,265,228,300,230,242,246,294,253,300,243,241,258,240,254,214,217,290,252,214,288,254,279,291,265,249,256,263,274,289,296,286,234,281,202,281,278,222,234,240,290,249,207,287,222,292,276,213,228,233,279,273,279,224,249,239,293,205,274,268,242,284,268,259,258,216,260,224,264,249,289,261,289,276,253,276,204,249,206,280,201,212,294,254,230,212,244,295,280,270,285,206,295,266,210,227,295,299,274,229,257,263,241,233,297,264,215,299,282,280,234,281,227,269,226,281,286,275,245,224,277,295,289,218,236,234,254,248,264,290,295,218,257,241,250,215,287,252,245,205,219,229,203,252,258,300,201,295,277,242,255,253,299,225,233,250,249,257,300,239,235,251,276,216,294,203,235,259,214,264,267,288,230,210,270,224,231,200,250,225,208,210,248,249,259,235,254,205,220,218,272,283,227,266,282,234,263,284,239,243,206,293,266,215,269,278,283,219,295,202,296,221,210,289,252,226,210,296,273,298,226,236,201,217,217,291,235,269,260,233,245,237,221,272,234,283,213,295,230,205,285,234,254,227,249,256,283,276,285,298,296,264,236,288,267,242,274,246,230,215,274,267,235,219,252,292,213,266,237,264,231,291,281,233,210,209,249,213,208,277,242,281,236,280,297,297,266,224,275,271,266,248,271,294,274,251,204,238,218,295,208,241,234,295,290,214,270,263,270,253,270,282,242,215,295];
N=[18541,31696,8577,9637,6359,6225,9889,6722,11095,18987,9515,13387,342,155,12256,40769,7365,1366,10732,9056,7460,8768,3426];
